70 699
1 23 16 47 37 58 50 51 56 65 64 11 67 48 54 62 33 34 21 17 43 41 6 42 18 4 57 15 24 19 2 7 32 3 8 26 55 49 28 14 20 30 44 68 27 46 25 45 39 61 40 9 12 60 52 10 5 53 66 63 22 59 38 69 31 35 70 13 29 36 
